Route #1:
Route #2: 30 5 8 25
Route #3: 12
Route #4: 14 13
Route #5: 24 1
Route #6: 20
Route #7: 2 11 18 31 17 22
Route #8: 27 3 15
Route #9: 7 19 26 4 10 6 21
Route #10: 23 28 29 9
Route #11: 16

Cost: 2104.1682373249228
